\ LP format - for model browsing. Use MPS format to capture full model detail.
Maximize
  f2_0 + f2_1
Subject To
 c0_0: f_1-4-0 - f2_0 = 0
 c0_1: f_2-5-1 + f_2-6-1 - f2_1 = 0
 c1_11-0: f_7-11-0 - f_11-8-0 = 0
 c1_12-0: f_7-12-0 + f_8-12-0 + f_9-12-0 = 0
 c1_2-0: f_2-5-0 + f_2-6-0 = 0
 c1_3-0: f_3-7-0 + f_3-8-0 = 0
 c1_4-0: f_1-4-0 + f_7-4-0 - f_4-8-0 = 0
 c1_5-0: f_2-5-0 = 0
 c1_6-0: f_2-6-0 - f_6-9-0 = 0
 c1_7-0: f_3-7-0 - f_7-4-0 - f_7-10-0 - f_7-11-0 - f_7-12-0 = 0
 c1_8-0: f_3-8-0 + f_4-8-0 - f_8-10-0 + f_11-8-0 - f_8-12-0 + f_9-8-0 = 0
 c1_9-0: - f_9-8-0 + f_6-9-0 - f_9-12-0 = 0
 c1_11-1: f_7-11-1 - f_11-8-1 = 0
 c1_1-1: f_1-4-1 = 0
 c1_3-1: f_3-7-1 + f_3-8-1 = 0
 c1_4-1: f_1-4-1 + f_7-4-1 - f_4-8-1 = 0
 c1_5-1: f_2-5-1 = 0
 c1_6-1: f_2-6-1 - f_6-9-1 = 0
 c1_7-1: f_3-7-1 - f_7-4-1 - f_7-10-1 - f_7-11-1 - f_7-12-1 = 0
 c1_8-1: f_3-8-1 + f_4-8-1 - f_8-10-1 + f_11-8-1 - f_8-12-1 + f_9-8-1 = 0
 c1_9-1: - f_9-8-1 + f_6-9-1 - f_9-12-1 = 0
 c1_10-1: f_7-10-1 + f_8-10-1 = 0
 c2_0: f_1-4-0 + f_1-4-1 <= 2
 c2_1: f_2-5-0 + f_2-5-1 <= 1.25
 c2_2: f_2-6-0 + f_2-6-1 <= 1.25
 c2_3: f_3-7-0 + f_3-7-1 <= 1.5
 c2_4: f_3-8-0 + f_3-8-1 <= 1.5
 c2_5: f_7-4-0 + f_7-4-1 <= 1.5
 c2_6: f_4-8-0 + f_4-8-1 <= 1
 c2_7: f_7-10-0 + f_7-10-1 <= 0.75
 c2_8: f_7-11-0 + f_7-11-1 <= 0.75
 c2_9: f_7-12-0 + f_7-12-1 <= 0.75
 c2_10: f_8-10-0 + f_8-10-1 <= 0.75
 c2_11: f_11-8-0 + f_11-8-1 <= 0.75
 c2_12: f_8-12-0 + f_8-12-1 <= 0.75
 c2_13: f_9-8-0 + f_9-8-1 <= 0.25
 c2_14: f_6-9-0 + f_6-9-1 <= 1.25
 c2_15: f_9-12-0 + f_9-12-1 <= 0.75
Bounds
 f_1-4-0 <= 1
 f_1-4-1 <= 1
 f_2-5-0 <= 1
 f_2-5-1 <= 1
 f_2-6-0 <= 1
 f_2-6-1 <= 1
 f_3-7-0 <= 1
 f_3-7-1 <= 1
 f_3-8-0 <= 1
 f_3-8-1 <= 1
 f_7-4-0 <= 1
 f_7-4-1 <= 1
 f_4-8-0 <= 1
 f_4-8-1 <= 1
 f_7-10-0 <= 1
 f_7-10-1 <= 1
 f_7-11-0 <= 1
 f_7-11-1 <= 1
 f_7-12-0 <= 1
 f_7-12-1 <= 1
 f_8-10-0 <= 1
 f_8-10-1 <= 1
 f_11-8-0 <= 1
 f_11-8-1 <= 1
 f_8-12-0 <= 1
 f_8-12-1 <= 1
 f_9-8-0 <= 1
 f_9-8-1 <= 1
 f_6-9-0 <= 1
 f_6-9-1 <= 1
 f_9-12-0 <= 1
 f_9-12-1 <= 1
 f2_0 <= 1
 f2_1 <= 1
End
